Geographic Exponential Decay
20 169 290 215 248 217 314 58 141 166 11 283 100 236 94 267 72 90 46 195 117
p edge 320 670
e 0 257 21.0
e 1 154 9.0
e 1 0 4.0
e 1 285 7.0
e 2 19 1.0
e 3 226 3.0
e 3 55 4.0
e 4 174 7.0
e 4 257 24.0
e 5 60 1.0
e 6 83 5.0
e 7 274 6.0
e 7 293 4.0
e 7 202 20.0
e 7 13 7.0
e 7 116 18.0
e 8 63 2.0
e 9 273 1.0
e 9 4 11.0
e 9 162 11.0
e 10 115 6.0
e 11 63 63.0
e 11 251 85.0
e 11 309 36.0
e 11 144 74.0
e 11 37 58.0
e 11 205 15.0
e 11 214 35.0
e 11 90 27.0
e 11 8 30.0
e 11 281 41.0
e 11 290 87.0
e 11 215 34.0
e 11 71 96.0
e 11 39 33.0
e 11 229 21.0
e 11 272 71.0
e 11 12 7.0
e 13 267 5.0
e 14 288 48.0
e 14 100 4.0
e 14 152 5.0
e 14 299 32.0
e 14 269 10.0
e 14 6 37.0
e 14 273 35.0
e 14 7 17.0
e 14 158 48.0
e 15 299 3.0
e 16 246 20.0
e 17 113 5.0
e 17 47 1.0
e 18 34 5.0
e 18 49 2.0
e 19 164 1.0
e 20 249 1.0
e 21 78 1.0
e 22 231 6.0
e 22 49 1.0
e 23 46 1.0
e 23 185 1.0
e 24 305 1.0
e 25 65 2.0
e 25 252 1.0
e 26 254 41.0
e 26 134 5.0
e 27 311 4.0
e 27 302 2.0
e 27 288 2.0
e 28 8 1.0
e 28 48 5.0
e 29 252 2.0
e 30 199 1.0
e 31 136 3.0
e 32 77 1.0
e 32 231 8.0
e 32 256 6.0
e 33 304 2.0
e 33 67 5.0
e 35 87 1.0
e 36 3 1.0
e 36 40 1.0
e 37 167 3.0
e 38 120 5.0
e 41 114 2.0
e 42 316 2.0
e 43 104 8.0
e 43 221 1.0
e 43 169 99.0
e 44 282 12.0
e 45 206 19.0
e 45 69 16.0
e 45 151 13.0
e 45 120 15.0
e 45 66 5.0
e 46 91 94.0
e 46 222 17.0
e 46 203 21.0
e 46 213 100.0
e 46 127 97.0
e 46 309 25.0
e 46 269 25.0
e 46 21 89.0
e 46 214 8.0
e 46 195 56.0
e 46 137 83.0
e 46 254 23.0
e 46 255 80.0
e 46 206 6.0
e 46 207 47.0
e 46 286 95.0
e 47 204 14.0
e 50 118 10.0
e 51 258 1.0
e 51 299 3.0
e 52 41 3.0
e 53 214 3.0
e 54 90 42.0
e 55 87 2.0
e 56 149 11.0
e 56 11 25.0
e 56 115 9.0
e 56 25 9.0
e 56 88 18.0
e 57 263 3.0
e 58 285 45.0
e 58 191 16.0
e 58 159 40.0
e 58 1 71.0
e 58 130 8.0
e 58 21 12.0
e 58 238 86.0
e 58 281 3.0
e 58 275 25.0
e 58 304 33.0
e 58 225 8.0
e 58 258 79.0
e 58 156 84.0
e 58 208 38.0
e 58 52 30.0
e 58 190 55.0
e 58 221 28.0
e 59 296 20.0
e 59 202 1.0
e 61 2 1.0
e 62 229 5.0
e 64 71 4.0
e 64 244 10.0
e 64 135 10.0
e 66 25 2.0
e 66 140 10.0
e 68 282 9.0
e 68 28 1.0
e 68 61 9.0
e 70 159 1.0
e 70 72 29.0
e 72 291 47.0
e 72 80 3.0
e 72 63 93.0
e 72 44 76.0
e 72 193 16.0
e 72 17 4.0
e 72 71 90.0
e 72 252 41.0
e 72 58 75.0
e 72 182 48.0
e 72 101 70.0
e 72 124 16.0
e 72 59 23.0
e 72 18 17.0
e 72 293 18.0
e 72 317 61.0
e 73 250 11.0
e 74 219 2.0
e 75 76 20.0
e 75 93 7.0
e 75 269 48.0
e 75 198 3.0
e 75 59 4.0
e 75 193 27.0
e 75 67 48.0
e 75 241 25.0
e 75 277 23.0
e 77 158 12.0
e 78 14 16.0
e 79 265 5.0
e 79 310 3.0
e 79 269 3.0
e 81 36 5.0
e 81 304 1.0
e 82 312 11.0
e 82 277 16.0
e 82 96 11.0
e 83 18 2.0
e 84 54 5.0
e 84 124 2.0
e 85 81 5.0
e 85 259 3.0
e 86 49 4.0
e 86 285 1.0
e 88 47 4.0
e 89 208 24.0
e 89 203 3.0
e 90 117 16.0
e 90 295 89.0
e 90 112 9.0
e 90 227 45.0
e 90 77 95.0
e 90 38 45.0
e 90 281 70.0
e 90 200 20.0
e 90 255 24.0
e 90 105 55.0
e 90 248 68.0
e 90 122 43.0
e 90 185 75.0
e 90 240 19.0
e 90 113 94.0
e 92 203 14.0
e 92 150 22.0
e 92 175 12.0
e 92 206 22.0
e 92 233 15.0
e 93 200 5.0
e 94 156 79.0
e 94 203 17.0
e 94 199 72.0
e 94 309 82.0
e 94 137 76.0
e 94 59 49.0
e 94 284 51.0
e 94 31 35.0
e 94 60 54.0
e 94 18 83.0
e 94 296 100.0
e 94 7 81.0
e 94 47 79.0
e 94 45 18.0
e 94 290 15.0
e 94 162 78.0
e 94 112 4.0
e 95 190 1.0
e 97 225 2.0
e 97 179 6.0
e 98 267 19.0
e 99 73 2.0
e 99 63 1.0
e 100 33 42.0
e 100 212 89.0
e 100 124 40.0
e 100 303 78.0
e 100 115 16.0
e 100 109 16.0
e 100 129 70.0
e 100 125 42.0
e 100 30 85.0
e 100 16 72.0
e 100 168 50.0
e 100 137 92.0
e 100 21 41.0
e 100 95 50.0
e 100 176 16.0
e 100 206 28.0
e 102 71 1.0
e 103 191 4.0
e 106 72 13.0
e 107 15 1.0
e 107 213 5.0
e 108 69 2.0
e 108 207 20.0
e 109 118 9.0
e 109 135 3.0
e 110 133 3.0
e 110 189 49.0
e 110 260 6.0
e 110 34 48.0
e 110 116 3.0
e 110 112 49.0
e 110 60 8.0
e 110 266 48.0
e 110 172 41.0
e 111 278 6.0
e 116 40 11.0
e 117 114 34.0
e 117 55 15.0
e 117 129 89.0
e 117 222 64.0
e 117 243 45.0
e 117 188 12.0
e 117 2 97.0
e 117 242 36.0
e 117 8 71.0
e 117 209 100.0
e 117 309 30.0
e 117 235 33.0
e 117 200 44.0
e 117 195 70.0
e 117 57 19.0
e 117 125 56.0
e 118 76 1.0
e 119 259 2.0
e 120 211 1.0
e 121 258 10.0
e 121 11 89.0
e 121 278 7.0
e 123 150 8.0
e 123 147 19.0
e 123 208 21.0
e 123 57 1.0
e 123 31 24.0
e 126 58 43.0
e 127 166 19.0
e 128 269 1.0
e 128 162 8.0
e 128 17 11.0
e 131 66 11.0
e 131 259 3.0
e 132 267 1.0
e 133 55 2.0
e 136 271 5.0
e 138 254 41.0
e 138 27 1.0
e 139 78 1.0
e 140 39 4.0
e 141 306 13.0
e 141 230 73.0
e 141 262 13.0
e 141 142 51.0
e 141 296 28.0
e 141 90 47.0
e 141 14 51.0
e 141 216 56.0
e 141 157 11.0
e 141 23 78.0
e 141 81 84.0
e 141 195 37.0
e 141 27 84.0
e 141 174 7.0
e 141 61 5.0
e 141 126 86.0
e 141 314 36.0
e 143 113 1.0
e 144 96 10.0
e 144 68 10.0
e 145 250 4.0
e 145 91 4.0
e 146 130 2.0
e 147 301 24.0
e 147 282 6.0
e 147 180 4.0
e 147 124 3.0
e 148 162 3.0
e 151 301 5.0
e 152 198 4.0
e 153 143 5.0
e 153 64 9.0
e 155 254 31.0
e 155 166 31.0
e 157 197 11.0
e 157 230 21.0
e 157 75 16.0
e 157 35 3.0
e 158 1 18.0
e 158 220 5.0
e 158 12 24.0
e 160 122 1.0
e 161 11 45.0
e 161 217 28.0
e 163 295 5.0
e 164 254 12.0
e 165 289 24.0
e 165 190 6.0
e 165 106 12.0
e 165 82 18.0
e 165 111 11.0
e 166 89 35.0
e 166 198 5.0
e 166 170 36.0
e 166 194 100.0
e 166 257 24.0
e 166 216 66.0
e 166 305 42.0
e 166 202 11.0
e 166 267 16.0
e 166 147 20.0
e 166 303 36.0
e 166 171 99.0
e 166 314 60.0
e 166 46 52.0
e 166 228 92.0
e 169 308 26.0
e 169 140 76.0
e 169 295 89.0
e 169 234 83.0
e 169 182 47.0
e 169 109 94.0
e 169 157 67.0
e 169 23 95.0
e 169 25 41.0
e 169 263 80.0
e 169 85 6.0
e 169 231 47.0
e 169 293 26.0
e 169 200 10.0
e 169 127 69.0
e 169 250 50.0
e 170 262 5.0
e 171 192 1.0
e 173 112 3.0
e 174 179 8.0
e 175 192 5.0
e 177 301 3.0
e 177 156 5.0
e 178 179 24.0
e 178 150 24.0
e 178 170 9.0
e 178 182 23.0
e 178 19 13.0
e 181 19 10.0
e 181 314 32.0
e 181 1 9.0
e 183 226 3.0
e 183 248 14.0
e 183 107 3.0
e 184 235 15.0
e 186 196 11.0
e 186 127 8.0
e 186 313 7.0
e 187 88 3.0
e 188 292 3.0
e 188 220 2.0
e 191 199 4.0
e 191 126 10.0
e 191 294 18.0
e 194 316 1.0
e 195 41 21.0
e 195 233 93.0
e 195 245 33.0
e 195 19 8.0
e 195 250 94.0
e 195 200 52.0
e 195 178 34.0
e 195 51 95.0
e 195 220 82.0
e 195 312 77.0
e 195 179 21.0
e 195 5 13.0
e 195 219 86.0
e 195 260 17.0
e 201 3 2.0
e 201 178 16.0
e 201 223 7.0
e 204 62 15.0
e 204 131 11.0
e 204 199 22.0
e 204 205 21.0
e 207 279 2.0
e 207 177 19.0
e 207 247 17.0
e 208 91 11.0
e 208 314 44.0
e 209 255 3.0
e 210 214 13.0
e 211 241 12.0
e 211 65 22.0
e 211 268 23.0
e 211 279 19.0
e 212 251 2.0
e 214 227 23.0
e 215 175 80.0
e 215 200 36.0
e 215 176 52.0
e 215 128 32.0
e 215 34 99.0
e 215 12 12.0
e 215 72 13.0
e 215 153 98.0
e 215 121 54.0
e 215 165 55.0
e 215 64 47.0
e 215 171 78.0
e 215 169 69.0
e 215 300 83.0
e 215 30 91.0
e 215 35 83.0
e 217 265 99.0
e 217 85 82.0
e 217 185 76.0
e 217 52 90.0
e 217 194 90.0
e 217 51 39.0
e 217 118 69.0
e 217 58 17.0
e 217 62 37.0
e 217 74 5.0
e 217 292 91.0
e 217 98 81.0
e 217 88 88.0
e 217 244 57.0
e 217 183 68.0
e 217 86 63.0
e 218 125 2.0
e 222 72 51.0
e 224 151 2.0
e 227 47 2.0
e 228 281 3.0
e 232 307 11.0
e 232 268 4.0
e 232 75 33.0
e 235 51 15.0
e 235 302 24.0
e 235 114 19.0
e 236 289 8.0
e 236 164 46.0
e 236 5 46.0
e 236 17 89.0
e 236 220 74.0
e 236 249 16.0
e 236 260 88.0
e 236 43 73.0
e 236 82 34.0
e 236 114 74.0
e 236 317 25.0
e 236 105 4.0
e 236 113 66.0
e 236 29 50.0
e 236 88 58.0
e 236 253 42.0
e 236 192 24.0
e 237 22 4.0
e 238 82 12.0
e 238 289 22.0
e 238 218 24.0
e 238 48 16.0
e 239 35 1.0
e 242 73 5.0
e 243 30 24.0
e 243 118 9.0
e 243 139 25.0
e 243 194 3.0
e 246 198 3.0
e 246 305 24.0
e 246 163 22.0
e 246 20 18.0
e 248 2 13.0
e 248 116 49.0
e 248 256 3.0
e 248 125 42.0
e 248 4 66.0
e 248 115 100.0
e 248 40 9.0
e 248 287 73.0
e 248 296 48.0
e 248 156 72.0
e 248 249 42.0
e 248 257 96.0
e 248 244 39.0
e 248 302 34.0
e 248 243 86.0
e 250 100 87.0
e 253 144 22.0
e 253 275 13.0
e 253 295 3.0
e 253 202 24.0
e 254 101 39.0
e 254 137 33.0
e 254 229 29.0
e 254 277 45.0
e 257 247 21.0
e 261 20 1.0
e 263 248 43.0
e 264 197 1.0
e 266 96 3.0
e 266 273 2.0
e 267 80 47.0
e 267 155 53.0
e 267 3 56.0
e 267 92 89.0
e 267 10 21.0
e 267 298 89.0
e 267 139 44.0
e 267 154 23.0
e 267 282 60.0
e 267 73 3.0
e 267 20 34.0
e 267 142 20.0
e 267 221 26.0
e 270 218 2.0
e 271 146 1.0
e 276 130 8.0
e 276 44 22.0
e 276 74 10.0
e 276 295 19.0
e 276 224 18.0
e 277 120 13.0
e 277 306 9.0
e 278 126 11.0
e 280 202 12.0
e 280 268 8.0
e 280 190 1.0
e 283 276 44.0
e 283 212 88.0
e 283 83 35.0
e 283 197 72.0
e 283 230 29.0
e 283 259 85.0
e 283 168 87.0
e 283 238 16.0
e 283 159 11.0
e 283 12 52.0
e 283 221 99.0
e 283 224 9.0
e 283 105 26.0
e 283 203 47.0
e 283 60 82.0
e 283 40 20.0
e 283 128 3.0
e 284 0 23.0
e 284 66 1.0
e 284 269 19.0
e 284 70 22.0
e 290 232 20.0
e 290 65 55.0
e 290 301 71.0
e 290 4 47.0
e 290 22 72.0
e 290 291 43.0
e 290 252 95.0
e 290 116 58.0
e 290 260 45.0
e 290 89 79.0
e 290 289 57.0
e 290 5 91.0
e 290 270 39.0
e 290 274 59.0
e 290 83 16.0
e 296 49 23.0
e 297 127 1.0
e 298 189 1.0
e 300 110 14.0
e 300 61 1.0
e 300 294 23.0
e 300 37 16.0
e 303 302 6.0
e 308 233 17.0
e 308 197 12.0
e 308 77 1.0
e 308 231 14.0
e 310 213 4.0
e 310 74 11.0
e 311 292 7.0
e 311 102 8.0
e 314 6 60.0
e 314 204 42.0
e 314 209 92.0
e 314 134 15.0
e 314 294 76.0
e 314 111 50.0
e 314 227 88.0
e 314 236 73.0
e 314 31 14.0
e 314 148 23.0
e 314 246 57.0
e 314 174 30.0
e 314 196 36.0
e 315 84 1.0
e 315 122 9.0
e 315 22 3.0
e 318 135 2.0
e 319 195 11.0
